<number of tasks>
20

<cycle time>
1000

<order strength>
0,289


<task times>
1 587
2 448
3 456
4 645
5 371
6 661
7 735
8 720
9 666
10 556
11 650
12 795
13 717
14 683
15 493
16 532
17 218
18 284
19 321
20 718

<precedence relations>
1,7
2,7
3,7
4,7
6,8
6,9
7,10
7,11
7,12
7,13
7,14
8,16
9,15
13,18
16,17
17,20
18,19

<end>
